\ Model Ore Mixing Problem
\ LP format - for model browsing. Use MPS format to capture full model detail.
Minimize
  33.61344537815126 a_max_00 + 27.38225629791895 a_max_01
   + 970.8737864077671 a_max_10 + 1754.385964912281 a_max_11
   + 2272.727272727273 a_max_20 + 100000 a_max_21
   + 7142.857142857142 a_max_30 + 2325.581395348837 a_max_31
   + 12500 a_max_40 + 1204.819277108434 a_max_41
   + 1176.470588235295 a_max_50 + 4545.45454545455 a_max_51
   + 65.57377049180329 a_min_00 + 117.9245283018868 a_min_01
   + 2127.659574468085 a_min_10 + 1075.268817204301 a_min_11
   + 16666.66666666667 a_min_20 + 2040.816326530612 a_min_21
   + 2777.777777777778 a_min_30 + 14285.71428571428 a_min_31
   + 1086.95652173913 a_min_40 + 5882.35294117647 a_min_41
   + 1538.461538461538 a_min_50 + 781.25 a_min_51
   + 0.0655737704918033 b_min_00 + 0.1179245283018868 b_min_01
   + 2.127659574468085 b_min_10 + 1.754385964912281 b_min_11
   + 16.66666666666667 b_min_20 + 100 b_min_21 + 7.142857142857142 b_min_30
   + 14.28571428571428 b_min_31 + 12.5 b_min_40 + 5.88235294117647 b_min_41
   + 1.538461538461538 b_min_50 + 4.54545454545455 b_min_51
   + 0.0655737704918033 b_max_00 + 0.1179245283018868 b_max_01
   + 2.127659574468085 b_max_10 + 1.754385964912281 b_max_11
   + 16.66666666666667 b_max_20 + 100 b_max_21 + 7.142857142857142 b_max_30
   + 14.28571428571428 b_max_31 + 12.5 b_max_40 + 5.88235294117647 b_max_41
   + 1.538461538461538 b_max_50 + 4.54545454545455 b_max_51
Subject To
 capacity_constr_0: x_00 + x_01 <= 536.1
 capacity_constr_1: x_10 + x_11 <= 849.7
 capacity_constr_2: x_20 + x_21 <= 695.1
 capacity_constr_3: x_30 + x_31 <= 815.4
 capacity_constr_4: x_40 + x_41 <= 513
 capacity_constr_5: x_50 + x_51 <= 550.9
 demand_constr_0: x_00 + x_10 + x_20 + x_30 + x_40 + x_50 = 1247.6
 min_quality_constr_00: 30.75 x_00 - 16.42 x_10 + 0.93 x_20 + 22.47 x_30
   + 44.32 x_40 - 20.63 x_50 + 1247.6 a_min_00 >= -0
 max_quality_constr_00: - 14.25 x_00 - 61.42 x_10 - 44.07 x_20 - 22.53 x_30
   - 0.68 x_40 - 65.63 x_50 - 1247.6 a_max_00 <= -0
 goal_quality_constr_00: 15.5 x_00 - 31.67 x_10 - 14.32 x_20 + 7.22 x_30
   + 29.07 x_40 - 35.88 x_50 + b_min_00 - b_max_00 = -0
 min_quality_constr_10: 0.18 x_00 + 1.1 x_10 + 1.97 x_20 + 1.08 x_30
   + 0.44 x_40 + 1.38 x_50 + 1247.6 a_min_10 >= -0
 max_quality_constr_10: - 1.32 x_00 - 0.4 x_10 + 0.47 x_20 - 0.42 x_30
   - 1.06 x_40 - 0.12 x_50 - 1247.6 a_max_10 <= -0
 goal_quality_constr_10: - 0.29 x_00 + 0.63 x_10 + 1.5 x_20 + 0.61 x_30
   - 0.03 x_40 + 0.91 x_50 + b_min_10 - b_max_10 = -0
 min_quality_constr_20: 1.98 x_00 + 4.24 x_10 + 4.49 x_20 + 4.85 x_30
   + 4.27 x_40 + 3.85 x_50 + 1247.6 a_min_20 >= -0
 max_quality_constr_20: 1.48 x_00 + 3.74 x_10 + 3.99 x_20 + 4.35 x_30
   + 3.77 x_40 + 3.35 x_50 - 1247.6 a_max_20 <= -0
 goal_quality_constr_20: 1.92 x_00 + 4.18 x_10 + 4.43 x_20 + 4.79 x_30
   + 4.21 x_40 + 3.79 x_50 + b_min_20 - b_max_20 = -0
 min_quality_constr_30: 4.61 x_00 + 4.87 x_10 + 6.64 x_20 + 4.08 x_30
   + 6.42 x_40 + 1.85 x_50 + 1247.6 a_min_30 >= -0
 max_quality_constr_30: 4.11 x_00 + 4.37 x_10 + 6.14 x_20 + 3.58 x_30
   + 5.92 x_40 + 1.35 x_50 - 1247.6 a_max_30 <= -0
 goal_quality_constr_30: 4.25 x_00 + 4.51 x_10 + 6.28 x_20 + 3.72 x_30
   + 6.06 x_40 + 1.49 x_50 + b_min_30 - b_max_30 = -0
 min_quality_constr_40: 0.3 x_00 + 1.37 x_10 + 0.65 x_20 + 0.89 x_30
   + 1.03 x_40 + 0.93 x_50 + 1247.6 a_min_40 >= -0
 max_quality_constr_40: - 0.7 x_00 + 0.37 x_10 - 0.35 x_20 - 0.11 x_30
   + 0.03 x_40 - 0.07 x_50 - 1247.6 a_max_40 <= -0
 goal_quality_constr_40: - 0.62 x_00 + 0.45 x_10 - 0.27 x_20 - 0.03 x_30
   + 0.11 x_40 + 0.01 x_50 + b_min_40 - b_max_40 = -0
 min_quality_constr_50: 0.48 x_00 + 2.63 x_10 - 0.51 x_20 - 1.35 x_30
   + 2.73 x_40 + 1.56 x_50 + 1247.6 a_min_50 >= -0
 max_quality_constr_50: - 1.02 x_00 + 1.13 x_10 - 2.01 x_20 - 2.85 x_30
   + 1.23 x_40 + 0.06 x_50 - 1247.6 a_max_50 <= -0
 goal_quality_constr_50: - 0.17 x_00 + 1.98 x_10 - 1.16 x_20 - 2 x_30
   + 2.08 x_40 + 0.91 x_50 + b_min_50 - b_max_50 = -0
 demand_constr_1: x_01 + x_11 + x_21 + x_31 + x_41 + x_51 = 1155
 min_quality_constr_01: 30.75 x_01 - 16.42 x_11 + 0.93 x_21 + 22.47 x_31
   + 44.32 x_41 - 20.63 x_51 + 1155 a_min_01 >= -0
 max_quality_constr_01: - 14.25 x_01 - 61.42 x_11 - 44.07 x_21 - 22.53 x_31
   - 0.68 x_41 - 65.63 x_51 - 1155 a_max_01 <= -0
 goal_quality_constr_01: 22.27 x_01 - 24.9 x_11 - 7.55 x_21 + 13.99 x_31
   + 35.84 x_41 - 29.11 x_51 + b_min_01 - b_max_01 = -0
 min_quality_constr_11: 0.18 x_01 + 1.1 x_11 + 1.97 x_21 + 1.08 x_31
   + 0.44 x_41 + 1.38 x_51 + 1155 a_min_11 >= -0
 max_quality_constr_11: - 1.32 x_01 - 0.4 x_11 + 0.47 x_21 - 0.42 x_31
   - 1.06 x_41 - 0.12 x_51 - 1155 a_max_11 <= -0
 goal_quality_constr_11: - 0.75 x_01 + 0.17 x_11 + 1.04 x_21 + 0.15 x_31
   - 0.49 x_41 + 0.45 x_51 + b_min_11 - b_max_11 = -0
 min_quality_constr_21: 1.98 x_01 + 4.24 x_11 + 4.49 x_21 + 4.85 x_31
   + 4.27 x_41 + 3.85 x_51 + 1155 a_min_21 >= -0
 max_quality_constr_21: 1.48 x_01 + 3.74 x_11 + 3.99 x_21 + 4.35 x_31
   + 3.77 x_41 + 3.35 x_51 - 1155 a_max_21 <= -0
 goal_quality_constr_21: 1.49 x_01 + 3.75 x_11 + 4 x_21 + 4.36 x_31
   + 3.78 x_41 + 3.36 x_51 + b_min_21 - b_max_21 = -0
 min_quality_constr_31: 4.61 x_01 + 4.87 x_11 + 6.64 x_21 + 4.08 x_31
   + 6.42 x_41 + 1.85 x_51 + 1155 a_min_31 >= -0
 max_quality_constr_31: 4.11 x_01 + 4.37 x_11 + 6.14 x_21 + 3.58 x_31
   + 5.92 x_41 + 1.35 x_51 - 1155 a_max_31 <= -0
 goal_quality_constr_31: 4.54 x_01 + 4.8 x_11 + 6.57 x_21 + 4.01 x_31
   + 6.35 x_41 + 1.78 x_51 + b_min_31 - b_max_31 = -0
 min_quality_constr_41: 0.3 x_01 + 1.37 x_11 + 0.65 x_21 + 0.89 x_31
   + 1.03 x_41 + 0.93 x_51 + 1155 a_min_41 >= -0
 max_quality_constr_41: - 0.7 x_01 + 0.37 x_11 - 0.35 x_21 - 0.11 x_31
   + 0.03 x_41 - 0.07 x_51 - 1155 a_max_41 <= -0
 goal_quality_constr_41: 0.13 x_01 + 1.2 x_11 + 0.48 x_21 + 0.72 x_31
   + 0.86 x_41 + 0.76 x_51 + b_min_41 - b_max_41 = -0
 min_quality_constr_51: 0.48 x_01 + 2.63 x_11 - 0.51 x_21 - 1.35 x_31
   + 2.73 x_41 + 1.56 x_51 + 1155 a_min_51 >= -0
 max_quality_constr_51: - 1.02 x_01 + 1.13 x_11 - 2.01 x_21 - 2.85 x_31
   + 1.23 x_41 + 0.06 x_51 - 1155 a_max_51 <= -0
 goal_quality_constr_51: - 0.8 x_01 + 1.35 x_11 - 1.79 x_21 - 2.63 x_31
   + 1.45 x_41 + 0.28 x_51 + b_min_51 - b_max_51 = -0
Bounds
End
